data/MCDM/NO_CORR/GEN_FROM_60/10_ITEMS_1000_GEN/K5011W08.KNP.mps
NAME          BLANK   
ROWS
 N  OBJROW
 L  R0000000
COLUMNS
    C0000000  OBJROW     -468.         R0000000  416.        
    C0000001  OBJROW     -287.         R0000000  155.        
    C0000002  OBJROW     -708.         R0000000  264.        
    C0000003  OBJROW     -905.         R0000000  106.        
    C0000004  OBJROW     -937.         R0000000  955.        
    C0000005  OBJROW     -570.         R0000000  150.        
    C0000006  OBJROW     -248.         R0000000  989.        
    C0000007  OBJROW     -395.         R0000000  758.        
    C0000008  OBJROW     -678.         R0000000  747.        
    C0000009  OBJROW     -14.          R0000000  377.        
    C0000010  OBJROW     -545.         R0000000  70.         
RHS
    RHS       R0000000  15314.      
BOUNDS
 BV BOUND     C0000000  1.          
 BV BOUND     C0000001  1.          
 BV BOUND     C0000002  1.          
 BV BOUND     C0000003  1.          
 BV BOUND     C0000004  1.          
 BV BOUND     C0000005  1.          
 BV BOUND     C0000006  1.          
 BV BOUND     C0000007  1.          
 BV BOUND     C0000008  1.          
 BV BOUND     C0000009  1.          
 BV BOUND     C0000010  1.          
ENDATA
