data/MCDM/NO_CORR/GEN_FROM_60/10_ITEMS_1000_GEN/K5011W08.KNP.txt
N 11
M 12
LC 11
LC 12
LC 13
LC 14
LC 15
LC 16
LC 17
LC 18
LC 19
LC 20
LC 21
LR 1
LR 2
LR 3
LR 4
LR 5
LR 6
LR 7
LR 8
LR 9
LR 10
LR 11
LR 12
LO -468
LO -287
LO -708
LO -905
LO -937
LO -570
LO -248
LO -395
LO -678
LO -14
LO -545
OS 1
IC 646
IC 109
IC 790
IC 595
IC 541
IC 702
IC 339
IC 428
IC 785
IC 623
IC 51
IB 2805
